c Output_time 26.03.2020 18:08:27_+0100 1585242507553047794
c ** Program information **
c program_name                          "QBRG_debug"
c version                               "0.3.20"
c date                                  "25.3.2020"
c gid_id                                "673970833836058123f633335630c185360d632e"
c author                                "Oliver Kullmann"
c url                                   "https://github.com/OKullmann/oklibrary/blob/master/Satisfiability/Transformers/Generators/Random/QBRG.cpp"
c ** Machine information **
c machine_name                          "chyna-Lenovo-G50-70"
c bogomips                              3791.08
c ** Compilation information **
c compiler_version                      "g++ 7.5.0"
c compilation_date                      "Mar_26_2020 11:16:30"
c compilation_options                   "--std=c++17 -pedantic -fmax-errors=5 -Wall -Wextra -g -D_GLIBCXX_DEBUG"
c NDEBUG                                0
c OPTIMIZE                              0
c ** Parameters **
c command-line                          "./QBRG_debug" "a40 40" "305*1,1|2-2,1" "" "1,t" ""
c output                                "QuBlRaGe_80_305_1585242507552890436.qdimacs"
c options                               "filtered,renamed"
c num_quantifier_blocks                 2
c  quantifier_blocks                    1:a1-40 2:e41-80
c num_clause-blocks                     1
c  clause-blocks                        305 * {1-40,1,1/2} | {41-80,1,1/2}
c num_e-seeds                           23+2=25
c  e-seeds                              1 0 1 0 3 80 2 40 0 40 1 305 2 1 1 1 1 2 2 2 1 1 2 1 1585242507552889946
p cnf 80 305
a 1 2 3 4 5 6 7 8 9 10 11 12 13 14 15 16 17 18 19 20 21 22 23 24 25 26 27 28 29 30 31 32 33 34 35 36 37 38 39 40 0
e 41 42 43 44 45 46 47 48 49 50 51 52 53 54 55 56 57 58 59 60 61 62 63 64 65 66 67 68 69 70 71 72 73 74 75 76 77 78 79 80 0
15 -41 0
17 -41 0
-25 -41 0
-4 41 0
7 41 0
-11 41 0
-23 41 0
29 41 0
30 41 0
-37 41 0
-12 -42 0
26 -42 0
29 -42 0
35 -42 0
-38 -42 0
-14 42 0
-15 42 0
-22 42 0
30 42 0
31 42 0
34 42 0
35 42 0
12 -43 0
-22 -43 0
-24 -43 0
30 -43 0
31 -43 0
32 -43 0
-9 43 0
16 43 0
-28 43 0
-4 -44 0
-13 -44 0
20 -44 0
21 -44 0
-32 -44 0
37 -44 0
-13 44 0
-19 44 0
-20 44 0
29 44 0
32 44 0
35 44 0
38 44 0
6 -45 0
16 -45 0
23 -45 0
-25 -45 0
-33 -45 0
21 45 0
22 45 0
-25 45 0
-32 45 0
32 45 0
33 45 0
-1 -46 0
9 -46 0
-27 -46 0
9 -47 0
37 -47 0
-39 47 0
-3 -48 0
-30 -48 0
-32 -48 0
33 -48 0
-37 -48 0
37 -48 0
-14 48 0
2 -49 0
30 -49 0
5 49 0
16 49 0
-28 49 0
-29 49 0
40 49 0
-9 -50 0
-11 -50 0
23 -50 0
25 -50 0
-35 -50 0
-8 50 0
8 50 0
26 50 0
29 50 0
-35 50 0
2 -51 0
26 -51 0
23 51 0
-33 51 0
7 -52 0
-20 -52 0
32 -52 0
-5 52 0
18 52 0
5 53 0
-8 53 0
8 53 0
-37 53 0
-4 -54 0
-12 -54 0
22 -54 0
-2 54 0
-11 54 0
-12 54 0
-16 54 0
-21 54 0
31 54 0
33 54 0
40 54 0
-13 -55 0
-37 -55 0
2 55 0
7 55 0
-40 55 0
-19 -56 0
-24 -56 0
26 -56 0
-38 -56 0
-10 56 0
13 56 0
-17 56 0
-32 56 0
39 56 0
19 -57 0
32 -57 0
36 -57 0
38 -57 0
-1 57 0
18 57 0
33 57 0
36 57 0
-37 57 0
-6 -58 0
-8 -58 0
-12 -58 0
31 -58 0
-34 -58 0
35 -58 0
-40 -58 0
2 58 0
-17 58 0
-37 -59 0
37 -59 0
-38 -59 0
-38 59 0
39 59 0
-4 -60 0
13 -60 0
-40 -60 0
-1 60 0
6 60 0
16 60 0
18 60 0
-40 60 0
23 -61 0
-29 -61 0
-2 61 0
20 61 0
30 61 0
-2 -62 0
-15 -62 0
35 -62 0
-38 -62 0
38 62 0
-4 -63 0
4 -63 0
-11 -63 0
14 -63 0
-25 -63 0
-36 -63 0
-38 -63 0
-18 63 0
-31 63 0
1 -64 0
28 -64 0
35 -64 0
-36 -64 0
39 -64 0
8 64 0
-19 64 0
-27 64 0
31 64 0
-33 64 0
36 64 0
-15 -65 0
-18 -65 0
-28 -65 0
-30 -65 0
35 -65 0
-32 65 0
-37 65 0
39 65 0
-8 -66 0
11 -66 0
-21 -66 0
25 -66 0
-35 -66 0
-37 -66 0
-27 66 0
-29 66 0
32 66 0
-39 66 0
19 -67 0
-27 -67 0
-33 -67 0
-36 -67 0
-37 -67 0
9 -68 0
-10 -68 0
-15 -68 0
-19 -68 0
-24 -68 0
34 -68 0
37 68 0
-8 -69 0
16 -69 0
18 -69 0
25 -69 0
-26 -69 0
24 69 0
27 69 0
-32 69 0
33 69 0
1 -70 0
-13 -70 0
23 -70 0
25 -70 0
-1 70 0
17 70 0
-35 70 0
-38 70 0
-6 -71 0
-7 -71 0
18 -71 0
29 -71 0
-32 -71 0
-36 -71 0
40 -71 0
4 71 0
11 71 0
38 71 0
40 71 0
-1 -72 0
6 -72 0
12 -72 0
14 -72 0
-20 -72 0
39 -72 0
-22 72 0
-25 72 0
-33 72 0
34 72 0
-7 -73 0
8 -73 0
12 -73 0
-22 -73 0
-34 -73 0
5 73 0
-16 73 0
-18 73 0
-21 73 0
22 73 0
19 -74 0
-26 -74 0
28 -74 0
30 -74 0
-39 -74 0
-30 74 0
36 74 0
-37 74 0
38 74 0
-39 74 0
35 -75 0
-37 -75 0
-1 75 0
-34 75 0
17 -76 0
-32 -76 0
-14 76 0
-15 76 0
25 76 0
37 76 0
39 76 0
-9 -77 0
-24 -77 0
24 -77 0
29 -77 0
-33 77 0
33 77 0
-8 -78 0
-23 -78 0
9 78 0
-21 78 0
-22 78 0
-36 78 0
-37 78 0
-19 -79 0
-1 79 0
2 79 0
29 79 0
-35 -80 0
-8 80 0
-27 80 0
-38 80 0
-40 80 0
